28
BuNA+ (1-butyl-3-carbamoylpyridinium), charge +1; RDKit ETKDG + MMFF94
O        4.621788      -0.977813       0.939025
C        3.517613      -1.138362       0.443107
N        3.146200      -2.325653      -0.121167
C        2.539719      -0.035216       0.428399
C        1.177101      -0.284112       0.553077
N        0.290101       0.743053       0.592973
C       -1.159403       0.457332       0.746902
C       -1.778854       0.269532      -0.633548
C       -3.294800       0.076165      -0.589589
C       -3.720293      -1.206667       0.107801
C        0.714115       2.028198       0.517956
C        2.068624       2.321147       0.406173
C        2.990702       1.281617       0.370034
H        2.471931      -2.387476      -0.872086
H        3.900450      -3.007224      -0.178546
H        0.775432      -1.288600       0.646260
H       -1.252828      -0.437169       1.371556
H       -1.613074       1.295855       1.286746
H       -1.559533       1.148933      -1.251743
H       -1.311344      -0.583886      -1.139734
H       -3.766154       0.933710      -0.095507
H       -3.673104       0.055769      -1.618586
H       -3.241359      -2.079108      -0.347774
H       -3.466361      -1.188143       1.171665
H       -4.804551      -1.335380       0.028276
H       -0.037650       2.812389       0.554244
H        2.407554       3.354441       0.358226
H        4.057978       1.496669       0.303445
