%chk=mnah_ts1_conf_search.chk
%nprocshared=16
%mem=64GB
# m062x/6-31+G(d) emp=gd3 opt(modredundant) scrf(cpcm,solvent=water) freq

mnah_ts1_conf_search

-1 1
 C  -1.59684100  -0.47303900   1.52918800
 C  -0.22857300   0.14916100   1.80214900
 C   0.04361500   1.41083200   1.20889400
 N  -0.58941700   1.83851900   0.13565700
 C  -1.59564800   1.04046000  -0.44130900
 C  -2.08561900  -0.04818600   0.16274100
 H  -2.33375600  -0.18827900   2.29427800
 H  -1.49470300  -1.56354200   1.57382800
 H   0.85067300   2.03804600   1.56705400
 H  -1.95798800   1.37619200  -1.40661200
 C  -3.19120000  -0.76252600  -0.54804800
 N  -3.80415300  -1.73833800   0.15624600
 O  -3.52400400  -0.48022700  -1.70101400
 C  -0.13906300   3.01499100  -0.60859300
 H   0.59183400   3.55301300  -0.00724600
 H  -0.99444200   3.65955900  -0.81740100
 H   0.32883200   2.69124800  -1.54040800
 H  -3.58796000  -1.94293800   1.12129600
 H  -4.58510400  -2.22517000  -0.26420700
 H   0.10903600   0.08312900   2.83618600
 O   2.24957000   0.91384800  -0.20996100
 P   2.49177900  -0.58867800  -0.35956100
 O   1.38892000  -1.42317600   0.36391500
 O   3.83491600  -0.96187800   0.57321100
 O   2.79887500  -1.07387800  -1.77022500
 H   4.63226600  -0.59717800   0.16010100
 H   0.59336900  -0.54284100   1.15568300

B 2 27 F
B 27 23 F
B 3 21 F

